DIMACS2
20 116 217 106 225 8 84 36 134 101 123 288 120 75 180 163 118 185 23 178 241
p edge 320 2536
e 0 118 32.0
e 0 27 1.0
e 0 87 3.0
e 0 76 2.0
e 0 44 1.0
e 0 252 2.0
e 0 216 1.0
e 0 39 1.0
e 1 146 1.0
e 1 142 1.0
e 1 267 1.0
e 1 129 1.0
e 1 67 1.0
e 1 165 1.0
e 1 302 1.0
e 1 219 1.0
e 2 277 1.0
e 2 213 2.0
e 2 137 2.0
e 2 140 1.0
e 2 46 1.0
e 2 233 3.0
e 2 279 2.0
e 2 204 1.0
e 3 46 1.0
e 3 127 1.0
e 3 190 1.0
e 3 308 2.0
e 3 12 2.0
e 3 31 2.0
e 3 25 1.0
e 3 69 1.0
e 4 2 2.0
e 4 5 1.0
e 4 192 1.0
e 4 317 2.0
e 4 298 1.0
e 4 226 1.0
e 4 243 1.0
e 4 104 1.0
e 5 239 1.0
e 5 93 1.0
e 5 199 1.0
e 5 230 1.0
e 5 102 1.0
e 5 169 1.0
e 5 87 1.0
e 5 142 1.0
e 6 72 1.0
e 6 203 2.0
e 6 177 1.0
e 6 79 1.0
e 6 132 1.0
e 6 121 1.0
e 6 124 1.0
e 6 24 1.0
e 7 25 1.0
e 7 85 1.0
e 7 73 1.0
e 7 220 2.0
e 7 80 2.0
e 7 124 1.0
e 7 108 1.0
e 7 283 1.0
e 8 247 6.0
e 8 37 44.0
e 8 144 16.0
e 8 197 28.0
e 8 242 20.0
e 8 194 23.0
e 8 134 6.0
e 8 110 33.0
e 8 23 19.0
e 8 288 20.0
e 8 101 42.0
e 9 262 1.0
e 9 290 1.0
e 9 153 1.0
e 9 218 1.0
e 9 127 1.0
e 9 0 2.0
e 9 184 1.0
e 9 68 1.0
e 10 85 1.0
e 10 74 3.0
e 10 15 1.0
e 10 212 2.0
e 10 69 3.0
e 10 33 2.0
e 10 71 1.0
e 10 294 1.0
e 11 293 1.0
e 11 45 1.0
e 11 289 2.0
e 11 308 1.0
e 11 228 1.0
e 11 54 1.0
e 11 59 1.0
e 11 282 1.0
e 12 162 1.0
e 12 250 2.0
e 12 209 2.0
e 12 195 2.0
e 12 25 2.0
e 12 34 1.0
e 12 135 2.0
e 12 150 1.0
e 13 231 1.0
e 13 279 1.0
e 13 247 1.0
e 13 270 1.0
e 13 238 2.0
e 13 25 1.0
e 13 74 1.0
e 13 305 1.0
e 14 40 1.0
e 14 161 1.0
e 14 104 1.0
e 14 97 1.0
e 14 228 1.0
e 14 175 1.0
e 14 99 1.0
e 14 21 1.0
e 15 214 1.0
e 15 233 2.0
e 15 295 2.0
e 15 140 2.0
e 15 317 1.0
e 15 163 42.0
e 15 85 1.0
e 15 251 2.0
e 16 109 2.0
e 16 228 1.0
e 16 282 1.0
e 16 122 1.0
e 16 56 2.0
e 16 61 2.0
e 16 217 39.0
e 16 41 3.0
e 17 167 1.0
e 17 131 1.0
e 17 98 1.0
e 17 96 1.0
e 17 133 1.0
e 17 43 2.0
e 17 158 1.0
e 17 73 1.0
e 18 85 1.0
e 18 40 2.0
e 18 79 1.0
e 18 3 1.0
e 18 185 45.0
e 18 8 21.0
e 18 95 1.0
e 18 175 1.0
e 19 124 1.0
e 19 260 1.0
e 19 300 2.0
e 19 219 2.0
e 19 237 1.0
e 19 21 1.0
e 19 46 1.0
e 19 24 1.0
e 20 264 1.0
e 20 8 10.0
e 20 152 2.0
e 20 260 2.0
e 20 137 1.0
e 20 263 1.0
e 20 58 1.0
e 20 43 1.0
e 21 129 3.0
e 21 226 1.0
e 21 119 1.0
e 21 90 1.0
e 21 276 1.0
e 21 209 1.0
e 21 159 1.0
e 21 292 1.0
e 22 130 1.0
e 22 5 1.0
e 22 208 1.0
e 22 72 1.0
e 22 28 1.0
e 22 59 1.0
e 22 239 1.0
e 22 255 1.0
e 23 41 42.0
e 23 44 37.0
e 23 194 11.0
e 23 156 33.0
e 23 78 45.0
e 23 69 35.0
e 23 61 12.0
e 23 128 10.0
e 23 84 23.0
e 23 217 28.0
e 24 245 1.0
e 24 296 2.0
e 24 285 1.0
e 24 201 1.0
e 24 20 2.0
e 24 41 2.0
e 24 133 2.0
e 24 151 2.0
e 25 297 1.0
e 25 261 1.0
e 25 187 1.0
e 25 18 2.0
e 25 94 1.0
e 25 282 2.0
e 25 242 1.0
e 25 118 2.0
e 26 90 1.0
e 26 215 1.0
e 26 233 2.0
e 26 267 1.0
e 26 7 1.0
e 26 295 1.0
e 26 55 1.0
e 27 133 1.0
e 27 5 2.0
e 27 255 2.0
e 27 305 1.0
e 27 40 2.0
e 27 74 1.0
e 27 43 1.0
e 27 132 2.0
e 28 308 1.0
e 28 129 1.0
e 28 236 2.0
e 28 79 1.0
e 28 166 2.0
e 28 122 2.0
e 28 220 1.0
e 28 304 1.0
e 29 316 1.0
e 29 9 1.0
e 29 72 1.0
e 29 217 24.0
e 29 288 49.0
e 29 26 1.0
e 29 270 1.0
e 29 160 1.0
e 30 106 8.0
e 30 188 1.0
e 30 148 1.0
e 30 289 1.0
e 30 261 1.0
e 30 73 1.0
e 30 92 1.0
e 30 287 1.0
e 31 295 3.0
e 31 113 1.0
e 31 35 2.0
e 31 190 2.0
e 31 71 1.0
e 31 146 2.0
e 31 107 1.0
e 31 149 1.0
e 32 103 2.0
e 32 281 1.0
e 32 20 2.0
e 32 253 1.0
e 32 213 1.0
e 32 18 1.0
e 32 180 8.0
e 32 167 1.0
e 33 222 1.0
e 33 313 2.0
e 33 62 1.0
e 33 179 2.0
e 33 117 2.0
e 33 276 2.0
e 33 237 1.0
e 33 244 1.0
e 34 264 2.0
e 34 102 1.0
e 34 68 1.0
e 34 112 2.0
e 34 310 1.0
e 34 126 2.0
e 35 45 1.0
e 35 39 1.0
e 35 295 1.0
e 35 309 2.0
e 35 93 1.0
e 35 128 1.0
e 35 244 1.0
e 35 105 1.0
e 36 264 33.0
e 36 23 17.0
e 36 84 43.0
e 36 240 34.0
e 36 265 11.0
e 36 38 38.0
e 36 317 13.0
e 36 292 4.0
e 36 185 46.0
e 36 288 31.0
e 36 8 14.0
e 37 9 2.0
e 37 260 1.0
e 37 62 2.0
e 37 247 1.0
e 37 7 1.0
e 37 58 2.0
e 37 169 1.0
e 37 29 1.0
e 38 271 1.0
e 38 227 1.0
e 38 188 1.0
e 38 261 3.0
e 38 249 1.0
e 38 239 1.0
e 38 196 1.0
e 38 180 24.0
e 39 74 1.0
e 39 279 1.0
e 39 83 1.0
e 39 136 1.0
e 39 27 1.0
e 39 187 1.0
e 39 305 1.0
e 39 260 2.0
e 40 226 1.0
e 40 292 1.0
e 40 112 1.0
e 40 82 1.0
e 40 312 1.0
e 40 157 2.0
e 40 256 1.0
e 40 129 1.0
e 41 134 23.0
e 41 50 2.0
e 41 25 2.0
e 41 100 2.0
e 41 301 2.0
e 41 121 1.0
e 41 12 1.0
e 41 195 1.0
e 42 222 1.0
e 42 93 1.0
e 42 161 1.0
e 42 78 1.0
e 42 162 1.0
e 42 143 1.0
e 42 67 1.0
e 42 14 1.0
e 43 140 2.0
e 43 32 1.0
e 43 180 21.0
e 43 277 1.0
e 43 21 1.0
e 43 41 1.0
e 43 100 2.0
e 43 295 1.0
e 44 84 37.0
e 44 265 1.0
e 44 175 1.0
e 44 16 1.0
e 44 292 1.0
e 44 253 1.0
e 44 61 1.0
e 44 184 1.0
e 45 46 1.0
e 45 102 1.0
e 45 193 1.0
e 45 142 1.0
e 45 160 1.0
e 45 80 1.0
e 45 254 1.0
e 45 188 1.0
e 46 125 1.0
e 46 139 1.0
e 46 37 1.0
e 46 236 2.0
e 46 291 1.0
e 46 91 1.0
e 46 282 1.0
e 46 95 1.0
e 47 268 2.0
e 47 25 1.0
e 47 224 1.0
e 47 275 1.0
e 47 240 1.0
e 47 39 1.0
e 47 183 1.0
e 47 297 1.0
e 48 109 1.0
e 48 306 1.0
e 48 303 1.0
e 48 266 1.0
e 48 302 1.0
e 48 300 1.0
e 48 11 1.0
e 48 282 1.0
e 49 250 2.0
e 49 289 1.0
e 49 206 1.0
e 49 1 2.0
e 49 8 45.0
e 49 132 2.0
e 49 0 2.0
e 49 284 1.0
e 50 60 1.0
e 50 111 1.0
e 50 73 1.0
e 50 71 1.0
e 50 234 1.0
e 50 250 1.0
e 50 85 1.0
e 50 160 2.0
e 51 217 33.0
e 51 111 1.0
e 51 304 1.0
e 51 53 1.0
e 51 21 1.0
e 51 145 1.0
e 51 104 1.0
e 51 133 2.0
e 52 134 39.0
e 52 23 18.0
e 52 85 1.0
e 52 81 1.0
e 52 286 1.0
e 52 218 1.0
e 52 139 1.0
e 52 296 1.0
e 53 24 1.0
e 53 88 1.0
e 53 84 13.0
e 53 212 1.0
e 53 56 1.0
e 53 145 1.0
e 53 257 1.0
e 53 190 1.0
e 54 244 1.0
e 54 243 1.0
e 54 171 1.0
e 54 123 27.0
e 54 109 1.0
e 54 21 1.0
e 54 265 1.0
e 54 76 1.0
e 55 45 1.0
e 55 95 1.0
e 55 174 1.0
e 55 299 1.0
e 55 182 1.0
e 55 127 1.0
e 55 311 2.0
e 56 106 42.0
e 56 59 1.0
e 56 196 1.0
e 56 178 24.0
e 56 200 1.0
e 56 13 1.0
e 56 151 1.0
e 56 157 1.0
e 57 271 1.0
e 57 136 1.0
e 57 87 1.0
e 57 258 1.0
e 57 112 1.0
e 57 120 19.0
e 57 94 1.0
e 57 172 1.0
e 58 150 1.0
e 58 167 1.0
e 58 4 1.0
e 58 309 2.0
e 58 46 1.0
e 58 162 1.0
e 58 243 1.0
e 58 117 1.0
e 59 207 1.0
e 59 40 2.0
e 59 160 1.0
e 59 109 1.0
e 59 43 3.0
e 59 110 1.0
e 59 12 1.0
e 59 29 1.0
e 60 174 1.0
e 60 268 1.0
e 60 109 1.0
e 60 293 1.0
e 60 77 1.0
e 60 108 2.0
e 60 158 2.0
e 60 180 25.0
e 61 11 1.0
e 61 132 1.0
e 61 243 1.0
e 61 20 1.0
e 61 266 3.0
e 61 239 1.0
e 61 203 2.0
e 62 186 1.0
e 62 252 2.0
e 62 273 2.0
e 62 66 1.0
e 62 207 1.0
e 62 121 1.0
e 63 199 1.0
e 63 67 1.0
e 63 128 1.0
e 63 163 17.0
e 63 237 1.0
e 63 311 1.0
e 63 106 49.0
e 63 18 1.0
e 64 249 1.0
e 64 15 1.0
e 64 1 2.0
e 64 153 1.0
e 64 255 1.0
e 64 35 1.0
e 64 292 1.0
e 64 283 2.0
e 65 16 1.0
e 65 166 1.0
e 65 310 1.0
e 65 30 1.0
e 65 309 2.0
e 65 262 1.0
e 65 312 1.0
e 65 255 1.0
e 66 92 1.0
e 66 235 1.0
e 66 41 1.0
e 66 112 1.0
e 66 270 1.0
e 66 76 1.0
e 66 61 1.0
e 67 22 1.0
e 67 150 1.0
e 67 37 2.0
e 67 195 1.0
e 67 28 2.0
e 67 181 1.0
e 67 238 2.0
e 67 222 1.0
e 68 278 2.0
e 68 310 1.0
e 68 87 1.0
e 68 101 10.0
e 68 223 1.0
e 68 205 1.0
e 68 202 2.0
e 68 33 1.0
e 69 100 1.0
e 69 190 1.0
e 69 60 1.0
e 69 235 1.0
e 69 124 1.0
e 69 302 1.0
e 69 312 1.0
e 69 99 1.0
e 70 238 2.0
e 70 197 1.0
e 70 113 1.0
e 70 142 1.0
e 70 59 1.0
e 70 49 1.0
e 70 45 1.0
e 70 207 1.0
e 71 283 1.0
e 71 21 1.0
e 71 165 1.0
e 71 107 1.0
e 71 224 1.0
e 71 285 1.0
e 71 158 1.0
e 71 295 2.0
e 72 71 2.0
e 72 114 1.0
e 72 155 1.0
e 72 183 1.0
e 72 315 1.0
e 72 284 1.0
e 72 240 1.0
e 72 27 2.0
e 73 169 3.0
e 73 6 1.0
e 73 220 1.0
e 73 216 1.0
e 73 49 1.0
e 73 261 2.0
e 73 92 2.0
e 74 294 1.0
e 74 28 2.0
e 74 60 1.0
e 74 61 1.0
e 74 273 1.0
e 74 32 1.0
e 74 302 1.0
e 75 313 2.0
e 75 57 43.0
e 75 103 7.0
e 75 205 45.0
e 75 273 35.0
e 75 138 35.0
e 75 154 7.0
e 75 23 36.0
e 75 288 35.0
e 75 8 10.0
e 75 84 31.0
e 75 36 8.0
e 75 225 36.0
e 75 123 3.0
e 75 178 12.0
e 76 178 1.0
e 76 21 1.0
e 76 221 2.0
e 76 61 1.0
e 76 121 2.0
e 76 137 1.0
e 76 288 26.0
e 76 48 1.0
e 77 61 1.0
e 77 315 1.0
e 77 13 1.0
e 77 220 1.0
e 77 179 1.0
e 77 259 1.0
e 77 231 1.0
e 77 160 2.0
e 78 237 1.0
e 78 247 1.0
e 78 268 1.0
e 78 250 1.0
e 78 77 1.0
e 78 192 1.0
e 78 136 1.0
e 78 43 1.0
e 79 233 1.0
e 79 227 1.0
e 79 32 1.0
e 79 169 2.0
e 79 103 2.0
e 79 278 2.0
e 79 68 1.0
e 80 215 1.0
e 80 208 1.0
e 80 66 1.0
e 80 231 1.0
e 80 245 1.0
e 80 92 1.0
e 80 30 1.0
e 80 157 1.0
e 81 268 2.0
e 81 87 1.0
e 81 69 1.0
e 81 252 1.0
e 81 73 1.0
e 81 177 1.0
e 81 185 5.0
e 81 59 1.0
e 82 163 37.0
e 82 62 1.0
e 82 220 1.0
e 82 61 1.0
e 82 138 1.0
e 82 13 1.0
e 82 180 41.0
e 82 68 1.0
e 83 13 1.0
e 83 277 2.0
e 83 314 1.0
e 83 110 2.0
e 83 221 1.0
e 83 246 2.0
e 83 98 2.0
e 83 293 1.0
e 84 138 36.0
e 84 31 39.0
e 84 78 14.0
e 84 253 2.0
e 84 252 7.0
e 84 226 18.0
e 84 54 19.0
e 84 211 34.0
e 85 162 1.0
e 85 290 1.0
e 85 54 1.0
e 85 105 1.0
e 85 218 1.0
e 85 246 1.0
e 85 108 1.0
e 85 71 1.0
e 86 61 1.0
e 86 273 1.0
e 86 220 1.0
e 86 179 1.0
e 86 109 1.0
e 86 4 1.0
e 86 142 1.0
e 86 304 1.0
e 87 119 1.0
e 87 125 1.0
e 87 252 1.0
e 87 318 1.0
e 87 312 1.0
e 87 214 1.0
e 87 13 1.0
e 88 282 1.0
e 88 159 1.0
e 88 161 1.0
e 88 295 1.0
e 88 130 1.0
e 88 100 1.0
e 88 13 1.0
e 88 69 1.0
e 89 146 1.0
e 89 67 1.0
e 89 232 1.0
e 89 310 1.0
e 89 227 1.0
e 89 266 1.0
e 89 62 3.0
e 89 44 1.0
e 90 290 1.0
e 90 246 1.0
e 90 204 1.0
e 90 110 1.0
e 90 249 1.0
e 90 80 1.0
e 90 9 1.0
e 90 212 1.0
e 91 33 1.0
e 91 188 1.0
e 91 70 1.0
e 91 59 1.0
e 91 51 1.0
e 91 149 1.0
e 91 267 1.0
e 91 174 1.0
e 92 164 2.0
e 92 235 1.0
e 92 116 43.0
e 92 1 1.0
e 92 79 1.0
e 92 262 3.0
e 92 31 1.0
e 92 265 2.0
e 93 222 1.0
e 93 153 3.0
e 93 158 1.0
e 93 207 1.0
e 93 232 1.0
e 93 235 1.0
e 93 63 1.0
e 94 121 2.0
e 94 225 25.0
e 94 176 2.0
e 94 128 2.0
e 94 28 1.0
e 94 142 2.0
e 94 88 1.0
e 94 230 1.0
e 95 6 1.0
e 95 149 1.0
e 95 308 3.0
e 95 31 1.0
e 95 190 1.0
e 95 90 1.0
e 95 144 1.0
e 96 58 1.0
e 96 165 1.0
e 96 161 1.0
e 96 312 1.0
e 96 238 2.0
e 96 80 1.0
e 96 230 1.0
e 96 195 1.0
e 97 58 1.0
e 97 281 2.0
e 97 154 1.0
e 97 126 1.0
e 97 312 1.0
e 97 135 1.0
e 97 272 1.0
e 97 273 1.0
e 98 119 1.0
e 98 15 2.0
e 98 14 1.0
e 98 135 1.0
e 98 294 1.0
e 98 104 1.0
e 98 124 1.0
e 98 213 1.0
e 99 282 1.0
e 99 68 1.0
e 99 247 1.0
e 99 151 1.0
e 99 189 1.0
e 99 266 1.0
e 99 76 1.0
e 99 86 1.0
e 100 287 1.0
e 100 5 1.0
e 100 110 1.0
e 100 112 1.0
e 100 276 1.0
e 100 83 2.0
e 100 116 14.0
e 100 190 1.0
e 101 49 16.0
e 101 188 32.0
e 101 233 23.0
e 101 296 35.0
e 101 281 25.0
e 101 27 17.0
e 101 116 45.0
e 101 86 32.0
e 102 237 1.0
e 102 43 2.0
e 102 30 1.0
e 102 138 1.0
e 102 177 1.0
e 102 84 28.0
e 102 232 1.0
e 102 258 1.0
e 103 57 1.0
e 103 90 2.0
e 103 92 1.0
e 103 290 1.0
e 103 297 2.0
e 103 199 1.0
e 103 235 1.0
e 104 12 1.0
e 104 310 1.0
e 104 271 2.0
e 104 208 1.0
e 104 118 1.0
e 104 209 1.0
e 104 195 1.0
e 105 191 1.0
e 105 173 1.0
e 105 206 3.0
e 105 263 2.0
e 105 293 2.0
e 105 92 1.0
e 105 181 1.0
e 105 123 43.0
e 106 163 21.0
e 106 71 29.0
e 106 61 29.0
e 106 224 45.0
e 106 186 2.0
e 106 271 2.0
e 106 12 4.0
e 106 268 46.0
e 106 217 14.0
e 107 183 1.0
e 107 282 1.0
e 107 317 2.0
e 107 131 2.0
e 107 268 2.0
e 107 156 1.0
e 107 169 2.0
e 107 2 2.0
e 108 74 1.0
e 108 14 1.0
e 108 31 2.0
e 108 120 17.0
e 108 1 1.0
e 108 32 2.0
e 108 199 1.0
e 108 10 1.0
e 109 209 1.0
e 109 280 1.0
e 109 251 2.0
e 109 0 1.0
e 109 71 1.0
e 109 85 1.0
e 109 288 14.0
e 109 205 1.0
e 110 159 1.0
e 110 101 3.0
e 110 135 1.0
e 110 297 2.0
e 110 262 1.0
e 110 26 1.0
e 110 210 2.0
e 110 281 1.0
e 111 60 2.0
e 111 158 1.0
e 111 198 1.0
e 111 181 1.0
e 111 47 1.0
e 111 185 27.0
e 111 135 1.0
e 111 113 1.0
e 112 18 2.0
e 112 284 1.0
e 112 72 3.0
e 112 267 2.0
e 112 101 10.0
e 112 204 3.0
e 112 82 1.0
e 112 206 1.0
e 113 26 1.0
e 113 74 1.0
e 113 314 1.0
e 113 44 1.0
e 113 59 1.0
e 113 152 1.0
e 113 285 1.0
e 114 110 1.0
e 114 207 1.0
e 114 312 1.0
e 114 151 1.0
e 114 290 1.0
e 114 202 1.0
e 114 221 2.0
e 114 57 1.0
e 115 187 1.0
e 115 143 1.0
e 115 119 2.0
e 115 223 1.0
e 115 229 1.0
e 115 102 1.0
e 115 174 1.0
e 115 246 1.0
e 116 117 46.0
e 116 56 31.0
e 116 150 11.0
e 116 304 29.0
e 116 9 36.0
e 116 253 8.0
e 116 179 35.0
e 116 308 25.0
e 116 8 16.0
e 116 75 26.0
e 117 115 1.0
e 117 42 1.0
e 117 46 2.0
e 117 234 3.0
e 117 215 1.0
e 117 193 1.0
e 117 78 1.0
e 117 2 1.0
e 118 149 34.0
e 118 224 43.0
e 118 83 31.0
e 118 56 4.0
e 118 140 8.0
e 118 198 9.0
e 118 81 15.0
e 118 102 39.0
e 118 178 47.0
e 118 180 40.0
e 118 288 8.0
e 118 185 49.0
e 119 95 3.0
e 119 277 2.0
e 119 199 1.0
e 119 296 1.0
e 119 245 2.0
e 119 211 1.0
e 119 233 1.0
e 119 224 1.0
e 120 248 42.0
e 120 7 19.0
e 120 284 11.0
e 120 63 45.0
e 120 305 30.0
e 120 144 24.0
e 120 75 45.0
e 120 24 19.0
e 120 23 14.0
e 120 36 38.0
e 120 101 30.0
e 120 106 8.0
e 121 293 2.0
e 121 175 1.0
e 121 281 1.0
e 121 28 1.0
e 121 111 2.0
e 121 61 1.0
e 121 244 1.0
e 121 311 2.0
e 122 223 2.0
e 122 268 1.0
e 122 242 1.0
e 122 189 1.0
e 122 257 1.0
e 122 274 2.0
e 122 186 2.0
e 122 3 1.0
e 123 97 1.0
e 123 107 17.0
e 123 223 44.0
e 123 175 15.0
e 123 154 19.0
e 123 2 36.0
e 123 69 35.0
e 123 196 40.0
e 124 146 1.0
e 124 221 1.0
e 124 84 42.0
e 124 141 1.0
e 124 307 1.0
e 124 217 30.0
e 124 73 1.0
e 124 279 1.0
e 125 68 1.0
e 125 174 1.0
e 125 235 1.0
e 125 134 5.0
e 125 70 1.0
e 125 306 3.0
e 125 187 3.0
e 125 226 2.0
e 126 57 1.0
e 126 268 2.0
e 126 46 1.0
e 126 43 1.0
e 126 93 2.0
e 126 303 2.0
e 126 78 2.0
e 126 119 2.0
e 127 35 1.0
e 127 191 1.0
e 127 66 1.0
e 127 113 1.0
e 127 44 1.0
e 127 158 1.0
e 127 21 1.0
e 127 266 1.0
e 128 19 1.0
e 128 10 2.0
e 128 288 15.0
e 128 230 1.0
e 128 115 1.0
e 128 202 2.0
e 128 164 1.0
e 129 220 2.0
e 129 286 1.0
e 129 307 3.0
e 129 308 1.0
e 129 64 1.0
e 129 52 1.0
e 129 101 19.0
e 130 91 1.0
e 130 124 1.0
e 130 58 1.0
e 130 193 1.0
e 130 151 1.0
e 130 44 1.0
e 130 297 1.0
e 130 282 1.0
e 131 141 1.0
e 131 104 1.0
e 131 181 3.0
e 131 178 2.0
e 131 148 2.0
e 131 150 2.0
e 131 140 1.0
e 131 313 1.0
e 132 51 2.0
e 132 66 1.0
e 132 113 1.0
e 132 215 1.0
e 132 253 1.0
e 132 8 49.0
e 132 99 2.0
e 132 188 2.0
e 133 189 1.0
e 133 63 2.0
e 133 247 1.0
e 133 52 2.0
e 133 50 2.0
e 133 151 1.0
e 133 254 1.0
e 134 133 28.0
e 134 272 48.0
e 134 218 32.0
e 134 167 43.0
e 134 121 8.0
e 134 197 43.0
e 134 34 7.0
e 134 166 47.0
e 135 74 1.0
e 135 160 1.0
e 135 237 1.0
e 135 133 1.0
e 135 201 1.0
e 135 34 1.0
e 135 249 1.0
e 135 126 2.0
e 136 190 1.0
e 136 122 1.0
e 136 66 1.0
e 136 137 1.0
e 136 115 1.0
e 136 246 1.0
e 136 130 1.0
e 136 284 1.0
e 137 13 1.0
e 137 295 1.0
e 137 176 1.0
e 137 80 1.0
e 137 28 1.0
e 137 153 1.0
e 137 268 2.0
e 137 300 1.0
e 138 43 1.0
e 138 186 2.0
e 138 144 1.0
e 138 182 1.0
e 138 264 2.0
e 138 109 1.0
e 138 17 1.0
e 138 98 1.0
e 139 297 1.0
e 139 287 1.0
e 139 84 16.0
e 139 270 1.0
e 139 44 1.0
e 139 318 1.0
e 139 245 2.0
e 139 101 47.0
e 140 202 1.0
e 140 149 2.0
e 140 200 1.0
e 140 111 1.0
e 140 187 1.0
e 140 61 1.0
e 140 314 2.0
e 140 71 2.0
e 141 29 1.0
e 141 298 1.0
e 141 84 7.0
e 141 32 1.0
e 141 25 2.0
e 141 12 1.0
e 141 171 2.0
e 142 280 2.0
e 142 135 1.0
e 142 49 1.0
e 142 79 1.0
e 142 278 2.0
e 142 106 46.0
e 142 123 29.0
e 142 306 1.0
e 143 259 1.0
e 143 253 1.0
e 143 257 1.0
e 143 174 1.0
e 143 294 1.0
e 143 129 1.0
e 143 233 1.0
e 143 243 1.0
e 144 247 1.0
e 144 183 1.0
e 144 63 1.0
e 144 74 1.0
e 144 104 1.0
e 144 113 1.0
e 144 276 1.0
e 144 256 1.0
e 145 247 1.0
e 145 76 1.0
e 145 93 1.0
e 145 311 1.0
e 145 148 2.0
e 145 129 1.0
e 145 63 1.0
e 145 56 1.0
e 146 85 1.0
e 146 194 1.0
e 146 137 1.0
e 146 303 1.0
e 146 79 1.0
e 146 141 1.0
e 146 280 2.0
e 146 314 1.0
e 147 214 1.0
e 147 229 1.0
e 147 245 1.0
e 147 82 1.0
e 147 99 1.0
e 147 93 1.0
e 147 24 1.0
e 147 188 1.0
e 148 46 2.0
e 148 143 2.0
e 148 49 1.0
e 148 275 1.0
e 148 163 20.0
e 148 198 1.0
e 148 107 2.0
e 148 228 2.0
e 149 177 1.0
e 149 57 1.0
e 149 45 1.0
e 149 245 2.0
e 149 107 2.0
e 149 67 1.0
e 149 250 1.0
e 149 153 1.0
e 150 96 1.0
e 150 28 1.0
e 150 15 1.0
e 150 200 1.0
e 150 123 14.0
e 150 183 1.0
e 150 16 2.0
e 150 171 1.0
e 151 205 1.0
e 151 223 1.0
e 151 302 1.0
e 151 14 1.0
e 151 299 1.0
e 151 235 1.0
e 151 271 1.0
e 151 251 1.0
e 152 84 38.0
e 152 70 1.0
e 152 304 1.0
e 152 219 2.0
e 152 259 1.0
e 152 82 2.0
e 152 230 1.0
e 152 299 2.0
e 153 197 1.0
e 153 157 1.0
e 153 11 2.0
e 153 94 2.0
e 153 232 1.0
e 153 14 2.0
e 153 132 2.0
e 153 89 1.0
e 154 99 1.0
e 154 248 1.0
e 154 240 1.0
e 154 157 1.0
e 154 29 1.0
e 154 245 2.0
e 154 250 2.0
e 155 195 1.0
e 155 236 1.0
e 155 168 1.0
e 155 282 1.0
e 155 289 2.0
e 155 307 1.0
e 155 21 1.0
e 155 136 1.0
e 156 36 46.0
e 156 64 1.0
e 156 240 2.0
e 156 295 1.0
e 156 277 1.0
e 156 35 1.0
e 156 193 1.0
e 156 157 1.0
e 157 76 2.0
e 157 93 2.0
e 157 163 26.0
e 157 46 2.0
e 157 151 2.0
e 157 314 1.0
e 157 174 3.0
e 158 248 2.0
e 158 227 1.0
e 158 246 1.0
e 158 163 3.0
e 158 185 12.0
e 158 209 1.0
e 158 134 3.0
e 158 186 2.0
e 159 186 1.0
e 159 8 1.0
e 159 152 2.0
e 159 216 1.0
e 159 208 2.0
e 159 138 1.0
e 160 186 1.0
e 160 114 1.0
e 160 48 2.0
e 160 221 1.0
e 160 153 1.0
e 160 177 1.0
e 160 242 2.0
e 160 196 1.0
e 161 306 1.0
e 161 229 1.0
e 161 264 1.0
e 161 143 1.0
e 161 5 1.0
e 161 65 1.0
e 161 7 1.0
e 161 223 1.0
e 162 203 1.0
e 162 311 2.0
e 162 14 1.0
e 162 56 1.0
e 162 164 1.0
e 162 141 1.0
e 162 290 1.0
e 162 261 1.0
e 163 51 31.0
e 163 53 21.0
e 163 216 15.0
e 163 197 27.0
e 163 86 45.0
e 163 259 47.0
e 163 203 2.0
e 163 104 17.0
e 164 159 1.0
e 164 148 1.0
e 164 234 1.0
e 164 66 1.0
e 164 248 1.0
e 164 37 2.0
e 164 111 1.0
e 164 174 1.0
e 165 229 1.0
e 165 119 1.0
e 165 97 2.0
e 165 47 1.0
e 165 285 1.0
e 165 129 2.0
e 165 264 2.0
e 165 91 1.0
e 166 289 2.0
e 166 190 1.0
e 166 302 1.0
e 166 304 1.0
e 166 233 1.0
e 166 271 1.0
e 166 267 1.0
e 166 103 1.0
e 167 182 1.0
e 167 129 1.0
e 167 37 1.0
e 167 315 1.0
e 167 244 1.0
e 167 204 1.0
e 167 106 20.0
e 167 99 1.0
e 168 111 2.0
e 168 227 1.0
e 168 82 2.0
e 168 222 2.0
e 168 216 1.0
e 168 299 1.0
e 168 307 1.0
e 168 144 1.0
e 169 108 1.0
e 169 318 1.0
e 169 100 1.0
e 169 308 1.0
e 169 129 1.0
e 169 45 1.0
e 169 293 2.0
e 169 106 38.0
e 170 250 1.0
e 170 128 2.0
e 170 46 1.0
e 170 15 2.0
e 170 116 32.0
e 170 229 1.0
e 170 21 1.0
e 170 232 1.0
e 171 157 1.0
e 171 7 1.0
e 171 254 1.0
e 171 175 2.0
e 171 286 1.0
e 171 66 1.0
e 171 147 1.0
e 171 50 2.0
e 172 259 1.0
e 172 97 2.0
e 172 168 2.0
e 172 145 2.0
e 172 5 1.0
e 172 91 1.0
e 172 187 1.0
e 172 190 2.0
e 173 296 1.0
e 173 177 1.0
e 173 12 2.0
e 173 59 1.0
e 173 19 1.0
e 173 96 1.0
e 173 48 1.0
e 173 306 1.0
e 174 5 1.0
e 174 134 46.0
e 174 217 2.0
e 174 314 1.0
e 174 297 3.0
e 174 97 1.0
e 174 301 1.0
e 174 276 1.0
e 175 249 2.0
e 175 73 1.0
e 175 68 2.0
e 175 308 1.0
e 175 300 2.0
e 175 58 1.0
e 175 202 1.0
e 175 159 2.0
e 176 140 1.0
e 176 264 2.0
e 176 98 1.0
e 176 277 1.0
e 176 202 1.0
e 176 180 33.0
e 176 6 1.0
e 176 230 1.0
e 177 264 1.0
e 177 121 2.0
e 177 55 1.0
e 177 296 1.0
e 177 215 1.0
e 177 37 1.0
e 177 34 1.0
e 177 190 1.0
e 178 176 25.0
e 178 219 29.0
e 178 62 45.0
e 178 78 7.0
e 178 318 38.0
e 178 288 30.0
e 178 312 30.0
e 178 241 37.0
e 178 180 34.0
e 179 246 1.0
e 179 57 1.0
e 179 42 1.0
e 179 51 2.0
e 179 5 1.0
e 179 92 1.0
e 179 131 2.0
e 179 22 1.0
e 180 201 39.0
e 180 307 7.0
e 180 68 38.0
e 180 40 42.0
e 180 269 30.0
e 180 196 2.0
e 180 101 23.0
e 180 151 24.0
e 181 192 2.0
e 181 149 2.0
e 181 124 2.0
e 181 77 2.0
e 181 83 1.0
e 181 93 1.0
e 181 302 1.0
e 181 219 1.0
e 182 33 1.0
e 182 189 1.0
e 182 246 1.0
e 182 260 2.0
e 182 265 1.0
e 182 281 1.0
e 182 309 1.0
e 182 188 1.0
e 183 272 1.0
e 183 197 2.0
e 183 267 1.0
e 183 241 17.0
e 183 161 1.0
e 183 96 2.0
e 183 48 1.0
e 183 70 2.0
e 184 143 1.0
e 184 209 1.0
e 184 315 2.0
e 184 224 1.0
e 184 109 3.0
e 184 10 1.0
e 184 92 2.0
e 184 120 47.0
e 185 32 46.0
e 185 109 36.0
e 185 10 46.0
e 185 236 27.0
e 185 151 12.0
e 185 221 11.0
e 185 34 42.0
e 185 134 16.0
e 186 273 2.0
e 186 20 3.0
e 186 119 1.0
e 186 139 1.0
e 186 246 2.0
e 186 265 2.0
e 187 5 1.0
e 187 260 1.0
e 187 142 1.0
e 187 141 1.0
e 187 74 1.0
e 187 266 1.0
e 187 14 1.0
e 187 316 1.0
e 188 29 1.0
e 188 206 1.0
e 188 170 2.0
e 188 283 2.0
e 188 47 1.0
e 188 123 6.0
e 188 196 1.0
e 188 164 1.0
e 189 162 2.0
e 189 242 1.0
e 189 84 46.0
e 189 232 1.0
e 189 83 2.0
e 189 221 2.0
e 189 250 2.0
e 189 213 2.0
e 190 233 2.0
e 190 171 1.0
e 190 295 1.0
e 190 260 1.0
e 190 111 1.0
e 190 239 1.0
e 190 94 2.0
e 190 83 2.0
e 191 9 1.0
e 191 252 1.0
e 191 311 3.0
e 191 199 1.0
e 191 26 1.0
e 191 128 1.0
e 191 137 1.0
e 191 94 1.0
e 192 300 1.0
e 192 160 1.0
e 192 185 45.0
e 192 134 44.0
e 192 101 17.0
e 192 49 1.0
e 192 128 1.0
e 192 141 1.0
e 193 67 1.0
e 193 208 1.0
e 193 242 2.0
e 193 78 1.0
e 193 220 1.0
e 193 15 1.0
e 193 68 1.0
e 193 160 2.0
e 194 15 1.0
e 194 41 1.0
e 194 219 1.0
e 194 59 1.0
e 194 93 1.0
e 194 44 1.0
e 194 85 1.0
e 194 61 1.0
e 195 301 1.0
e 195 144 1.0
e 195 251 1.0
e 195 212 1.0
e 195 252 3.0
e 195 198 1.0
e 195 105 2.0
e 196 60 1.0
e 196 184 2.0
e 196 33 1.0
e 196 138 1.0
e 196 231 1.0
e 196 100 2.0
e 196 34 1.0
e 197 196 1.0
e 197 182 1.0
e 197 268 1.0
e 197 78 1.0
e 197 103 1.0
e 197 241 26.0
e 197 45 1.0
e 197 308 3.0
e 198 269 2.0
e 198 88 1.0
e 198 290 1.0
e 198 135 1.0
e 198 245 1.0
e 198 123 47.0
e 198 236 2.0
e 198 300 2.0
e 199 158 1.0
e 199 241 4.0
e 199 66 1.0
e 199 31 1.0
e 199 27 1.0
e 199 288 28.0
e 199 214 1.0
e 199 243 1.0
e 200 124 1.0
e 200 280 1.0
e 200 257 1.0
e 200 82 1.0
e 200 275 1.0
e 200 277 1.0
e 200 276 1.0
e 200 112 1.0
e 201 26 1.0
e 201 4 1.0
e 201 156 1.0
e 201 217 26.0
e 201 141 1.0
e 201 50 2.0
e 201 126 1.0
e 201 47 1.0
e 202 185 47.0
e 202 69 1.0
e 202 249 1.0
e 202 95 2.0
e 202 165 3.0
e 202 205 2.0
e 202 5 1.0
e 202 243 1.0
e 203 82 1.0
e 203 237 1.0
e 203 243 2.0
e 203 127 2.0
e 203 15 1.0
e 203 30 1.0
e 203 219 2.0
e 203 161 1.0
e 204 315 1.0
e 204 281 1.0
e 204 67 1.0
e 204 53 1.0
e 204 258 1.0
e 204 96 1.0
e 204 81 1.0
e 204 35 1.0
e 205 284 1.0
e 205 297 3.0
e 205 163 16.0
e 205 121 1.0
e 205 256 1.0
e 205 312 1.0
e 205 132 1.0
e 205 33 1.0
e 206 90 1.0
e 206 109 1.0
e 206 65 1.0
e 206 131 1.0
e 206 276 2.0
e 206 259 1.0
e 206 40 1.0
e 206 200 1.0
e 207 191 1.0
e 207 97 1.0
e 207 138 1.0
e 207 46 1.0
e 207 140 2.0
e 207 211 1.0
e 207 176 1.0
e 207 105 1.0
e 208 275 1.0
e 208 297 1.0
e 208 92 1.0
e 208 162 1.0
e 208 238 2.0
e 208 99 1.0
e 208 152 2.0
e 208 290 1.0
e 209 163 35.0
e 209 162 1.0
e 209 68 1.0
e 209 94 1.0
e 209 301 2.0
e 209 279 1.0
e 209 116 3.0
e 209 120 19.0
e 210 10 2.0
e 210 5 1.0
e 210 224 1.0
e 210 7 1.0
e 210 50 1.0
e 210 124 1.0
e 210 21 1.0
e 210 281 1.0
e 211 292 1.0
e 211 244 1.0
e 211 139 1.0
e 211 52 1.0
e 211 168 1.0
e 211 194 1.0
e 211 142 2.0
e 211 239 1.0
e 212 57 1.0
e 212 270 1.0
e 212 267 1.0
e 212 169 1.0
e 212 222 1.0
e 212 32 1.0
e 212 271 1.0
e 212 318 1.0
e 213 119 3.0
e 213 27 1.0
e 213 317 1.0
e 213 114 1.0
e 213 112 2.0
e 213 274 1.0
e 213 65 1.0
e 213 257 1.0
e 214 280 1.0
e 214 128 1.0
e 214 179 1.0
e 214 2 1.0
e 214 52 1.0
e 214 166 2.0
e 214 262 1.0
e 215 110 1.0
e 215 28 2.0
e 215 213 1.0
e 215 249 1.0
e 215 0 1.0
e 215 170 2.0
e 215 144 1.0
e 215 136 1.0
e 216 142 1.0
e 216 241 15.0
e 216 263 1.0
e 216 154 1.0
e 216 20 1.0
e 216 283 1.0
e 216 190 1.0
e 216 41 1.0
e 217 32 4.0
e 217 245 4.0
e 217 119 37.0
e 217 28 6.0
e 217 291 10.0
e 217 172 44.0
e 217 171 14.0
e 217 1 33.0
e 218 164 2.0
e 218 139 1.0
e 218 186 1.0
e 218 22 2.0
e 218 133 1.0
e 218 231 1.0
e 218 42 1.0
e 218 129 1.0
e 219 238 1.0
e 219 257 2.0
e 219 197 1.0
e 219 22 1.0
e 219 41 1.0
e 219 208 2.0
e 219 108 1.0
e 219 96 1.0
e 220 201 1.0
e 220 211 2.0
e 220 24 1.0
e 220 190 1.0
e 220 53 1.0
e 220 244 1.0
e 220 26 1.0
e 220 171 1.0
e 221 267 2.0
e 221 184 2.0
e 221 149 2.0
e 221 219 1.0
e 221 264 1.0
e 221 26 1.0
e 221 201 1.0
e 221 29 1.0
e 222 287 1.0
e 222 21 1.0
e 222 314 1.0
e 222 316 1.0
e 222 167 1.0
e 222 103 2.0
e 222 215 1.0
e 222 198 1.0
e 223 24 2.0
e 223 265 2.0
e 223 74 2.0
e 223 202 1.0
e 223 204 2.0
e 223 266 1.0
e 223 88 1.0
e 223 260 2.0
e 224 16 2.0
e 224 59 1.0
e 224 29 1.0
e 224 309 2.0
e 224 149 2.0
e 224 217 43.0
e 224 205 1.0
e 224 208 1.0
e 225 287 24.0
e 225 298 43.0
e 225 32 11.0
e 225 205 10.0
e 225 153 16.0
e 225 201 25.0
e 225 210 23.0
e 225 160 5.0
e 225 23 21.0
e 225 178 24.0
e 225 180 28.0
e 225 36 35.0
e 226 311 1.0
e 226 107 1.0
e 226 149 2.0
e 226 115 1.0
e 226 292 2.0
e 226 130 3.0
e 226 85 1.0
e 226 251 1.0
e 227 148 3.0
e 227 273 1.0
e 227 305 1.0
e 227 213 1.0
e 227 203 1.0
e 227 202 1.0
e 227 293 1.0
e 227 313 3.0
e 228 311 1.0
e 228 280 3.0
e 228 167 1.0
e 228 83 2.0
e 228 157 1.0
e 228 24 1.0
e 228 51 1.0
e 228 199 1.0
e 229 39 1.0
e 229 74 1.0
e 229 273 1.0
e 229 184 1.0
e 229 129 2.0
e 229 85 1.0
e 229 270 1.0
e 229 2 1.0
e 230 207 1.0
e 230 313 1.0
e 230 83 1.0
e 230 221 1.0
e 230 105 1.0
e 230 1 1.0
e 230 287 1.0
e 230 108 2.0
e 231 312 1.0
e 231 93 1.0
e 231 172 2.0
e 231 315 1.0
e 231 41 1.0
e 231 50 2.0
e 231 316 1.0
e 231 107 2.0
e 232 129 2.0
e 232 243 1.0
e 232 156 1.0
e 232 22 1.0
e 232 279 1.0
e 232 315 2.0
e 232 209 1.0
e 232 122 1.0
e 233 265 1.0
e 233 235 2.0
e 233 1 1.0
e 233 141 1.0
e 233 45 1.0
e 233 124 1.0
e 233 64 1.0
e 233 39 3.0
e 234 46 2.0
e 234 25 1.0
e 234 267 3.0
e 234 36 36.0
e 234 231 1.0
e 234 147 2.0
e 234 132 2.0
e 234 11 2.0
e 235 190 1.0
e 235 59 1.0
e 235 197 1.0
e 235 203 1.0
e 235 98 1.0
e 235 284 1.0
e 235 16 2.0
e 235 162 1.0
e 236 265 2.0
e 236 14 2.0
e 236 169 2.0
e 236 48 2.0
e 236 63 1.0
e 236 4 3.0
e 236 144 1.0
e 237 200 1.0
e 237 156 1.0
e 237 304 1.0
e 237 157 1.0
e 237 244 1.0
e 237 309 2.0
e 237 49 1.0
e 237 176 1.0
e 238 108 2.0
e 238 76 2.0
e 238 285 2.0
e 238 292 1.0
e 238 152 2.0
e 238 217 44.0
e 238 139 2.0
e 238 112 1.0
e 239 292 1.0
e 239 205 1.0
e 239 26 1.0
e 239 268 2.0
e 239 41 1.0
e 239 220 1.0
e 239 19 1.0
e 239 222 1.0
e 240 172 1.0
e 240 18 2.0
e 240 20 2.0
e 240 292 1.0
e 240 314 1.0
e 240 54 2.0
e 240 2 1.0
e 240 80 2.0
e 241 30 6.0
e 241 276 19.0
e 241 76 49.0
e 241 50 42.0
e 241 291 25.0
e 241 176 24.0
e 241 266 26.0
e 241 300 30.0
e 241 180 47.0
e 242 139 1.0
e 242 16 2.0
e 242 214 2.0
e 242 65 2.0
e 242 131 2.0
e 242 38 1.0
e 242 108 2.0
e 243 2 2.0
e 243 80 1.0
e 243 169 1.0
e 243 255 1.0
e 243 82 1.0
e 243 24 1.0
e 243 276 2.0
e 243 138 1.0
e 244 162 1.0
e 244 134 10.0
e 244 252 1.0
e 244 243 1.0
e 244 280 2.0
e 244 119 2.0
e 244 163 38.0
e 245 310 1.0
e 245 262 1.0
e 245 311 2.0
e 245 136 2.0
e 245 273 1.0
e 245 259 1.0
e 245 61 2.0
e 245 301 1.0
e 246 289 1.0
e 246 25 2.0
e 246 147 1.0
e 246 238 3.0
e 246 16 1.0
e 246 117 1.0
e 246 59 1.0
e 246 184 2.0
e 247 216 1.0
e 247 206 1.0
e 247 53 1.0
e 247 181 1.0
e 247 114 1.0
e 247 0 1.0
e 247 19 1.0
e 247 179 1.0
e 248 221 1.0
e 248 194 1.0
e 248 136 2.0
e 248 115 1.0
e 248 263 1.0
e 248 284 1.0
e 248 274 1.0
e 249 91 1.0
e 249 41 1.0
e 249 89 1.0
e 249 149 1.0
e 249 13 1.0
e 249 50 2.0
e 249 132 1.0
e 250 168 1.0
e 250 171 1.0
e 250 256 1.0
e 250 21 1.0
e 250 314 1.0
e 250 120 31.0
e 250 126 1.0
e 250 90 2.0
e 251 294 1.0
e 251 150 1.0
e 251 63 1.0
e 251 234 2.0
e 251 23 25.0
e 251 54 1.0
e 251 275 1.0
e 252 256 1.0
e 252 308 1.0
e 252 167 1.0
e 252 250 1.0
e 252 285 1.0
e 252 117 2.0
e 252 95 2.0
e 252 56 2.0
e 253 286 1.0
e 253 73 1.0
e 253 136 1.0
e 253 222 1.0
e 253 224 1.0
e 253 288 38.0
e 253 246 1.0
e 254 202 2.0
e 254 39 1.0
e 254 65 2.0
e 254 91 1.0
e 254 118 11.0
e 254 183 2.0
e 255 127 1.0
e 255 236 2.0
e 255 284 1.0
e 255 57 1.0
e 255 97 2.0
e 255 37 1.0
e 255 274 1.0
e 255 278 2.0
e 256 163 37.0
e 256 188 1.0
e 256 316 1.0
e 256 207 1.0
e 256 236 1.0
e 256 136 1.0
e 256 109 1.0
e 256 24 1.0
e 257 126 1.0
e 257 275 1.0
e 257 305 2.0
e 257 258 2.0
e 257 85 1.0
e 257 278 2.0
e 257 26 1.0
e 257 281 1.0
e 258 253 1.0
e 258 49 2.0
e 258 276 2.0
e 258 158 1.0
e 258 59 2.0
e 258 134 24.0
e 258 264 1.0
e 258 53 1.0
e 259 149 1.0
e 259 203 2.0
e 259 164 2.0
e 259 213 1.0
e 259 196 1.0
e 259 111 2.0
e 259 34 3.0
e 259 13 1.0
e 260 221 2.0
e 260 272 2.0
e 260 309 2.0
e 260 24 1.0
e 260 163 2.0
e 260 141 2.0
e 260 80 2.0
e 261 122 2.0
e 261 179 1.0
e 261 297 2.0
e 261 189 2.0
e 261 152 1.0
e 261 150 1.0
e 261 251 1.0
e 261 23 14.0
e 262 300 2.0
e 262 79 1.0
e 262 237 1.0
e 262 175 1.0
e 262 80 1.0
e 262 147 1.0
e 262 71 1.0
e 262 187 1.0
e 263 21 1.0
e 263 104 2.0
e 263 261 1.0
e 263 265 2.0
e 263 36 35.0
e 263 27 3.0
e 263 234 2.0
e 263 272 1.0
e 264 144 2.0
e 264 126 1.0
e 264 308 1.0
e 264 91 2.0
e 264 4 1.0
e 264 80 2.0
e 264 271 2.0
e 264 26 1.0
e 265 83 1.0
e 265 19 2.0
e 265 108 1.0
e 265 221 1.0
e 265 202 1.0
e 265 234 2.0
e 265 114 2.0
e 266 145 1.0
e 266 122 2.0
e 266 115 1.0
e 266 73 1.0
e 266 263 1.0
e 266 305 2.0
e 266 212 1.0
e 266 280 1.0
e 267 73 1.0
e 267 13 1.0
e 267 83 2.0
e 267 257 1.0
e 267 113 1.0
e 267 186 1.0
e 267 191 1.0
e 268 17 2.0
e 268 160 2.0
e 268 293 2.0
e 268 195 1.0
e 268 184 1.0
e 268 292 1.0
e 268 48 1.0
e 269 317 1.0
e 269 219 1.0
e 269 52 1.0
e 269 149 2.0
e 269 263 1.0
e 269 183 1.0
e 269 76 2.0
e 269 43 1.0
e 270 318 1.0
e 270 39 1.0
e 270 136 1.0
e 270 20 1.0
e 270 99 1.0
e 270 201 1.0
e 270 248 1.0
e 270 232 1.0
e 271 7 1.0
e 271 267 1.0
e 271 132 3.0
e 271 121 2.0
e 271 142 2.0
e 271 203 1.0
e 271 67 1.0
e 271 280 1.0
e 272 54 1.0
e 272 190 2.0
e 272 247 1.0
e 272 209 1.0
e 272 280 2.0
e 272 289 2.0
e 272 161 1.0
e 272 89 2.0
e 273 279 1.0
e 273 154 1.0
e 273 70 1.0
e 273 53 1.0
e 273 42 1.0
e 273 225 46.0
e 273 119 1.0
e 273 40 2.0
e 274 249 1.0
e 274 289 3.0
e 274 75 25.0
e 274 304 1.0
e 274 181 2.0
e 274 221 1.0
e 274 165 2.0
e 274 193 2.0
e 275 313 2.0
e 275 95 1.0
e 275 263 1.0
e 275 316 1.0
e 275 294 1.0
e 275 173 1.0
e 275 39 1.0
e 276 231 1.0
e 276 26 2.0
e 276 220 1.0
e 276 103 2.0
e 276 136 1.0
e 276 176 1.0
e 276 145 1.0
e 276 117 1.0
e 277 202 2.0
e 277 317 1.0
e 277 241 34.0
e 277 1 1.0
e 277 99 2.0
e 277 50 1.0
e 277 108 2.0
e 277 115 2.0
e 278 163 34.0
e 278 43 2.0
e 278 233 2.0
e 278 262 1.0
e 278 292 3.0
e 278 309 1.0
e 278 215 2.0
e 278 306 1.0
e 279 228 1.0
e 279 257 1.0
e 279 297 1.0
e 279 229 1.0
e 279 221 2.0
e 279 149 2.0
e 279 111 1.0
e 279 219 1.0
e 280 178 41.0
e 280 1 1.0
e 280 308 1.0
e 280 103 2.0
e 280 224 1.0
e 280 253 1.0
e 280 30 2.0
e 280 40 2.0
e 281 305 2.0
e 281 146 1.0
e 281 78 1.0
e 281 140 2.0
e 281 239 1.0
e 281 157 1.0
e 281 87 1.0
e 281 119 3.0
e 282 185 47.0
e 282 245 2.0
e 282 106 47.0
e 282 100 2.0
e 282 64 1.0
e 282 178 5.0
e 282 285 1.0
e 282 263 2.0
e 283 109 1.0
e 283 231 1.0
e 283 14 1.0
e 283 1 2.0
e 283 265 1.0
e 283 210 1.0
e 283 118 24.0
e 284 36 34.0
e 284 313 1.0
e 284 302 1.0
e 284 162 1.0
e 284 68 1.0
e 284 208 1.0
e 285 199 1.0
e 285 237 2.0
e 285 36 46.0
e 285 254 2.0
e 285 187 1.0
e 285 270 1.0
e 285 246 1.0
e 285 303 2.0
e 286 244 1.0
e 286 14 1.0
e 286 112 1.0
e 286 282 1.0
e 286 26 1.0
e 286 293 1.0
e 286 315 1.0
e 286 292 1.0
e 287 192 1.0
e 287 134 29.0
e 287 15 1.0
e 287 264 1.0
e 287 174 1.0
e 287 102 1.0
e 287 156 1.0
e 288 9 22.0
e 288 181 42.0
e 288 95 20.0
e 288 168 48.0
e 288 247 2.0
e 288 126 48.0
e 288 281 18.0
e 288 111 43.0
e 289 267 1.0
e 289 90 2.0
e 289 194 1.0
e 289 211 1.0
e 289 8 9.0
e 289 260 1.0
e 289 52 2.0
e 289 60 1.0
e 290 240 1.0
e 290 143 1.0
e 290 57 1.0
e 290 91 1.0
e 290 202 1.0
e 290 201 1.0
e 290 183 1.0
e 290 117 1.0
e 291 317 1.0
e 291 12 1.0
e 291 50 2.0
e 291 14 1.0
e 291 257 1.0
e 291 187 1.0
e 291 262 1.0
e 291 164 1.0
e 292 110 1.0
e 292 261 1.0
e 292 160 2.0
e 292 154 1.0
e 292 74 1.0
e 292 123 7.0
e 292 312 1.0
e 293 101 44.0
e 293 135 1.0
e 293 116 11.0
e 293 258 1.0
e 293 59 1.0
e 293 316 1.0
e 293 19 1.0
e 293 24 1.0
e 294 59 1.0
e 294 246 1.0
e 294 280 2.0
e 294 302 1.0
e 294 95 1.0
e 294 207 1.0
e 294 136 1.0
e 294 312 1.0
e 295 219 3.0
e 295 267 1.0
e 295 141 1.0
e 295 55 1.0
e 295 274 1.0
e 295 98 1.0
e 295 281 1.0
e 296 282 1.0
e 296 146 2.0
e 296 38 1.0
e 296 309 1.0
e 296 226 2.0
e 296 34 2.0
e 296 257 1.0
e 297 95 1.0
e 297 38 1.0
e 297 145 2.0
e 297 291 1.0
e 297 167 1.0
e 297 84 7.0
e 297 42 2.0
e 297 245 1.0
e 298 119 2.0
e 298 265 1.0
e 298 113 1.0
e 298 70 1.0
e 298 114 1.0
e 298 104 1.0
e 298 31 2.0
e 298 23 47.0
e 299 70 1.0
e 299 208 1.0
e 299 162 1.0
e 299 155 1.0
e 299 25 1.0
e 299 296 2.0
e 299 132 2.0
e 299 295 1.0
e 300 280 1.0
e 300 66 1.0
e 300 230 2.0
e 300 284 1.0
e 300 174 1.0
e 300 256 1.0
e 300 172 2.0
e 300 228 1.0
e 301 217 12.0
e 301 58 1.0
e 301 49 1.0
e 301 256 1.0
e 301 110 1.0
e 301 214 3.0
e 301 282 2.0
e 301 228 1.0
e 302 285 1.0
e 302 266 3.0
e 302 298 1.0
e 302 301 1.0
e 302 134 19.0
e 302 212 1.0
e 302 229 1.0
e 302 241 23.0
e 303 309 1.0
e 303 7 1.0
e 303 76 1.0
e 303 132 1.0
e 303 67 1.0
e 303 316 1.0
e 303 270 1.0
e 303 19 1.0
e 304 153 2.0
e 304 61 1.0
e 304 130 1.0
e 304 71 1.0
e 304 180 12.0
e 304 247 1.0
e 304 81 1.0
e 304 285 2.0
e 305 209 2.0
e 305 128 1.0
e 305 182 2.0
e 305 30 2.0
e 305 156 1.0
e 305 138 1.0
e 305 242 2.0
e 306 162 1.0
e 306 139 1.0
e 306 103 1.0
e 306 170 1.0
e 306 247 1.0
e 306 56 1.0
e 306 58 1.0
e 307 123 6.0
e 307 148 2.0
e 307 213 1.0
e 307 187 1.0
e 307 12 1.0
e 307 35 1.0
e 307 216 1.0
e 307 106 3.0
e 308 158 1.0
e 308 184 1.0
e 308 310 1.0
e 308 243 2.0
e 308 35 2.0
e 308 146 1.0
e 308 294 1.0
e 309 68 2.0
e 309 239 1.0
e 309 181 1.0
e 309 274 2.0
e 309 210 1.0
e 309 34 1.0
e 309 163 23.0
e 309 69 1.0
e 310 186 1.0
e 310 279 1.0
e 310 148 1.0
e 310 107 3.0
e 310 132 1.0
e 310 67 1.0
e 310 233 1.0
e 310 121 1.0
e 311 115 1.0
e 311 19 2.0
e 311 79 1.0
e 311 178 34.0
e 311 205 1.0
e 311 174 1.0
e 311 138 2.0
e 311 176 1.0
e 312 255 1.0
e 312 241 44.0
e 312 251 1.0
e 312 308 2.0
e 312 302 1.0
e 312 165 1.0
e 312 24 2.0
e 313 44 1.0
e 313 279 1.0
e 313 244 1.0
e 313 249 1.0
e 313 55 2.0
e 313 0 1.0
e 313 194 1.0
e 313 4 1.0
e 314 296 1.0
e 314 274 2.0
e 314 127 1.0
e 314 173 1.0
e 314 206 1.0
e 314 58 1.0
e 314 48 1.0
e 314 303 1.0
e 315 132 2.0
e 315 116 10.0
e 315 199 1.0
e 315 6 1.0
e 315 53 2.0
e 315 153 1.0
e 315 192 1.0
e 315 294 1.0
e 316 54 1.0
e 316 2 1.0
e 316 14 1.0
e 316 265 2.0
e 316 19 1.0
e 316 264 1.0
e 316 62 1.0
e 316 126 1.0
e 317 57 1.0
e 317 270 2.0
e 317 160 2.0
e 317 85 1.0
e 317 275 2.0
e 317 183 1.0
e 317 211 2.0
e 317 221 1.0
e 318 244 1.0
e 318 288 31.0
e 318 291 1.0
e 318 230 1.0
e 318 157 2.0
e 318 57 1.0
e 318 127 1.0
e 318 81 1.0
e 319 290 1.0
e 319 252 1.0
e 319 133 2.0
e 319 140 1.0
e 319 275 1.0
e 319 316 1.0
e 319 245 1.0
